InboundTrucks  = 8;
OutboundTrucks = 5;
InboundDoors   = 4;
OutboundDoors  = 4;
ReleaseTime    = [74,108,24,116,69,118,45,59];
UnloadTime     = [13,42,23,24,28,41,23,31];
LoadTime       = [19,7,13,11,10];
TransferTime   = [| 44,0,0,0,0 | 0,37,0,49,0 | 0,0,0,17,0 | 0,0,39,16,0 | 33,46,0,0,0 | 0,0,0,0,48 | 0,0,42,0,0 | 0,0,15,46,0 |];
